p cnf 79 257
-3 1 0
-3 -2 0
-1 2 3 0
7 5 0
7 -6 0
-5 6 -7 0
-9 7 0
-9 8 0
-7 -8 9 0
-10 -4 0
-10 9 0
4 -9 10 0
3 10 -11 0
-3 -10 -11 0
3 -10 11 0
-3 10 11 0
13 11 0
13 12 0
-11 -12 -13 0
14 13 0
14 -7 0
-13 7 -14 0
6 16 0
-6 16 0
15 16 -17 0
-15 -16 -17 0
15 -16 17 0
-15 16 17 0
18 10 0
18 11 0
-10 -11 -18 0
20 18 0
20 -19 0
-18 19 -20 0
-21 15 0
-21 20 0
-15 -20 21 0
-6 -16 -22 0
6 16 -22 0
-6 16 22 0
6 -16 22 0
23 22 0
23 -3 0
-22 3 -23 0
-21 23 -24 0
21 -23 -24 0
-21 -23 24 0
21 23 24 0
25 17 0
25 24 0
-17 -24 -25 0
11 -22 -27 0
-11 22 -27 0
11 22 27 0
-11 -22 27 0
26 -27 -28 0
-26 27 -28 0
26 27 28 0
-26 -27 28 0
-29 25 0
-29 -28 0
-25 28 29 0
-30 -14 0
-30 -29 0
14 29 30 0
-31 19 -32 0
31 -19 -32 0
-31 -19 32 0
31 19 32 0
33 1 0
33 -9 0
-1 9 -33 0
-34 -33 0
-34 19 0
33 -19 34 0
-36 -2 0
-36 35 0
2 -35 36 0
-36 2 -37 0
36 -2 -37 0
-36 -2 37 0
36 2 37 0
38 34 0
38 -37 0
-34 37 -38 0
39 32 0
39 -38 0
-32 38 -39 0
-41 5 0
-41 -40 0
-5 40 41 0
-41 -26 -42 0
41 26 -42 0
-41 26 42 0
41 -26 42 0
-43 42 0
-43 42 0
-42 43 0
-44 -33 0
-44 43 0
33 -43 44 0
45 -39 0
45 -44 0
39 44 -45 0
46 6 0
46 16 0
-6 -16 -46 0
47 5 0
47 -41 0
-5 41 -47 0
-48 -47 0
-48 7 0
47 -7 48 0
49 12 0
49 4 0
-12 -4 -49 0
-49 -4 -50 0
49 4 -50 0
-49 4 50 0
49 -4 50 0
51 -48 0
51 -50 0
48 50 -51 0
-49 -5 -52 0
49 5 -52 0
-49 5 52 0
49 -5 52 0
13 52 -53 0
-13 -52 -53 0
13 -52 53 0
-13 52 53 0
54 -51 0
54 53 0
51 -53 -54 0
55 46 0
55 54 0
-46 -54 -55 0
45 -55 -56 0
-45 55 -56 0
45 55 56 0
-45 -55 56 0
-12 31 -57 0
12 -31 -57 0
-12 -31 57 0
12 31 57 0
58 -57 0
58 49 0
57 -49 -58 0
59 -43 0
59 31 0
43 -31 -59 0
-60 19 0
-60 -6 0
-19 6 60 0
-61 52 0
-61 -60 0
-52 60 61 0
19 61 -62 0
-19 -61 -62 0
19 -61 62 0
-19 61 62 0
-63 41 0
-63 -41 0
-62 -63 -64 0
62 63 -64 0
-62 63 64 0
62 -63 64 0
-65 -59 0
-65 -64 0
59 64 65 0
66 -58 0
66 65 0
58 -65 -66 0
56 66 -67 0
-56 -66 -67 0
56 -66 67 0
-56 66 67 0
68 30 0
68 67 0
-30 -67 -68 0
69 -12 0
69 -41 0
12 41 -69 0
70 -36 0
70 -6 0
36 6 -70 0
-71 -52 0
-71 -47 0
52 47 71 0
42 -71 -72 0
-42 71 -72 0
42 71 72 0
-42 -71 72 0
49 47 -74 0
-49 -47 -74 0
49 -47 74 0
-49 47 74 0
75 -73 0
75 74 0
73 -74 -75 0
-76 72 0
-76 -75 0
-72 75 76 0
-77 -70 0
-77 76 0
70 -76 77 0
-78 69 0
-78 -77 0
-69 77 78 0
-68 78 -79 0
68 -78 -79 0
-68 -78 79 0
68 78 79 0
-27 -34 -37 -18 0
12 6 24 -5 -19 0
37 27 -29 0
17 -54 0
67 -40 19 0
24 -50 72 48 -25 0
-79 47 38 -26 21 4 0
-47 2 -62 -58 49 0
-67 -52 -73 61 68 0
-67 74 0
77 -51 -55 0
14 37 -46 25 -79 0
50 38 -59 -43 6 0
-73 -2 37 3 -25 0
-18 60 0
-59 -30 -33 72 3 -8 0
25 31 70 0
79 52 0
11 26 70 60 -19 0
-56 -4 -47 52 39 -65 0
32 57 -9 0
73 10 -24 75 45 38 0
19 -44 39 -76 -70 -71 0
19 -62 0
17 8 14 72 0
65 72 6 -46 41 34 0
-17 -65 -19 36 0
74 -67 -19 15 0
-17 22 63 -76 19 0
60 -24 -16 -79 45 0
66 42 8 0
10 39 41 9 -13 0
-73 -72 -67 -51 0
-1 30 -37 -79 68 -12 0
-17 -56 0
-41 27 0
-19 50 23 0
79 -39 26 78 0
66 54 3 -8 -42 61 0
55 78 0
-52 64 63 -16 0
65 -63 -75 0
48 -36 16 2 -11 75 0
79 0
